p cnf 945 2778
c inputs: 1 2 3 4 5 6 7 8 9 10 11 12 13 14 15 16 17 18 19
c variables for gates: 20 ... 926
c outputs: 927 928 929 930 931 932 933 934 935 936 937 938 939 940 941 942 943 944 945
c random input: -1 -2 -3 -4 -5 -6 -7 -8 9 10 -11 -12 13 -14 15 -16 -17 -18 19
20 -1 -10 0
-20 1 0
-20 10 0
21 -1 -11 0
-21 1 0
-21 11 0
22 -1 -12 0
-22 1 0
-22 12 0
23 -1 -13 0
-23 1 0
-23 13 0
24 -1 -14 0
-24 1 0
-24 14 0
25 -1 -15 0
-25 1 0
-25 15 0
26 -1 -16 0
-26 1 0
-26 16 0
27 -1 -17 0
-27 1 0
-27 17 0
28 -1 -18 0
-28 1 0
-28 18 0
29 -1 -19 0
-29 1 0
-29 19 0
30 -2 -10 0
-30 2 0
-30 10 0
31 -2 -11 0
-31 2 0
-31 11 0
32 -2 -12 0
-32 2 0
-32 12 0
33 -2 -13 0
-33 2 0
-33 13 0
34 -2 -14 0
-34 2 0
-34 14 0
35 -2 -15 0
-35 2 0
-35 15 0
36 -2 -16 0
-36 2 0
-36 16 0
37 -2 -17 0
-37 2 0
-37 17 0
38 -2 -18 0
-38 2 0
-38 18 0
39 -2 -19 0
-39 2 0
-39 19 0
40 -3 -10 0
-40 3 0
-40 10 0
41 -3 -11 0
-41 3 0
-41 11 0
42 -3 -12 0
-42 3 0
-42 12 0
43 -3 -13 0
-43 3 0
-43 13 0
44 -3 -14 0
-44 3 0
-44 14 0
45 -3 -15 0
-45 3 0
-45 15 0
46 -3 -16 0
-46 3 0
-46 16 0
47 -3 -17 0
-47 3 0
-47 17 0
48 -3 -18 0
-48 3 0
-48 18 0
49 -3 -19 0
-49 3 0
-49 19 0
50 -4 -10 0
-50 4 0
-50 10 0
51 -4 -11 0
-51 4 0
-51 11 0
52 -4 -12 0
-52 4 0
-52 12 0
53 -4 -13 0
-53 4 0
-53 13 0
54 -4 -14 0
-54 4 0
-54 14 0
55 -4 -15 0
-55 4 0
-55 15 0
56 -4 -16 0
-56 4 0
-56 16 0
57 -4 -17 0
-57 4 0
-57 17 0
58 -4 -18 0
-58 4 0
-58 18 0
59 -4 -19 0
-59 4 0
-59 19 0
60 -5 -10 0
-60 5 0
-60 10 0
61 -5 -11 0
-61 5 0
-61 11 0
62 -5 -12 0
-62 5 0
-62 12 0
63 -5 -13 0
-63 5 0
-63 13 0
64 -5 -14 0
-64 5 0
-64 14 0
65 -5 -15 0
-65 5 0
-65 15 0
66 -5 -16 0
-66 5 0
-66 16 0
67 -5 -17 0
-67 5 0
-67 17 0
68 -5 -18 0
-68 5 0
-68 18 0
69 -5 -19 0
-69 5 0
-69 19 0
70 -6 -10 0
-70 6 0
-70 10 0
71 -6 -11 0
-71 6 0
-71 11 0
72 -6 -12 0
-72 6 0
-72 12 0
73 -6 -13 0
-73 6 0
-73 13 0
74 -6 -14 0
-74 6 0
-74 14 0
75 -6 -15 0
-75 6 0
-75 15 0
76 -6 -16 0
-76 6 0
-76 16 0
77 -6 -17 0
-77 6 0
-77 17 0
78 -6 -18 0
-78 6 0
-78 18 0
79 -6 -19 0
-79 6 0
-79 19 0
80 -7 -10 0
-80 7 0
-80 10 0
81 -7 -11 0
-81 7 0
-81 11 0
82 -7 -12 0
-82 7 0
-82 12 0
83 -7 -13 0
-83 7 0
-83 13 0
84 -7 -14 0
-84 7 0
-84 14 0
85 -7 -15 0
-85 7 0
-85 15 0
86 -7 -16 0
-86 7 0
-86 16 0
87 -7 -17 0
-87 7 0
-87 17 0
88 -7 -18 0
-88 7 0
-88 18 0
89 -7 -19 0
-89 7 0
-89 19 0
90 -8 -10 0
-90 8 0
-90 10 0
91 -8 -11 0
-91 8 0
-91 11 0
92 -8 -12 0
-92 8 0
-92 12 0
93 -8 -13 0
-93 8 0
-93 13 0
94 -8 -14 0
-94 8 0
-94 14 0
95 -8 -15 0
-95 8 0
-95 15 0
96 -8 -16 0
-96 8 0
-96 16 0
97 -8 -17 0
-97 8 0
-97 17 0
98 -8 -18 0
-98 8 0
-98 18 0
99 -8 -19 0
-99 8 0
-99 19 0
100 -9 -10 0
-100 9 0
-100 10 0
101 -9 -11 0
-101 9 0
-101 11 0
102 -9 -12 0
-102 9 0
-102 12 0
103 -9 -13 0
-103 9 0
-103 13 0
104 -9 -14 0
-104 9 0
-104 14 0
105 -9 -15 0
-105 9 0
-105 15 0
106 -9 -16 0
-106 9 0
-106 16 0
107 -9 -17 0
-107 9 0
-107 17 0
108 -9 -18 0
-108 9 0
-108 18 0
109 -9 -19 0
-109 9 0
-109 19 0
110 -71 -80 0
-110 71 0
-110 80 0
111 -80 71 0
-111 80 0
-111 -71 0
112 -71 80 0
-112 71 0
-112 -80 0
113 112 111 0
-113 -112 0
-113 -111 0
114 -90 -110 0
-114 90 0
-114 110 0
115 -81 -110 0
-115 81 0
-115 110 0
116 -81 -90 0
-116 81 0
-116 90 0
117 116 115 0
-117 -116 0
-117 -115 0
118 114 -117 0
-118 -114 0
-118 117 0
119 -90 81 0
-119 90 0
-119 -81 0
120 -81 90 0
-120 81 0
-120 -90 0
121 119 120 0
-121 -119 0
-121 -120 0
122 -110 -121 0
-122 110 0
-122 121 0
123 110 121 0
-123 -110 0
-123 -121 0
124 123 122 0
-124 -123 0
-124 -122 0
125 -72 124 0
-125 72 0
-125 -124 0
126 72 124 0
-126 -72 0
-126 -124 0
127 -72 -124 0
-127 72 0
-127 124 0
128 126 127 0
-128 -126 0
-128 -127 0
129 118 -125 0
-129 -118 0
-129 125 0
130 -100 -125 0
-130 100 0
-130 125 0
131 -100 118 0
-131 100 0
-131 -118 0
132 131 130 0
-132 -131 0
-132 -130 0
133 129 -132 0
-133 -129 0
-133 132 0
134 100 118 0
-134 -100 0
-134 -118 0
135 -100 -118 0
-135 100 0
-135 118 0
136 134 135 0
-136 -134 0
-136 -135 0
137 -125 -136 0
-137 125 0
-137 136 0
138 125 136 0
-138 -125 0
-138 -136 0
139 138 137 0
-139 -138 0
-139 -137 0
140 -91 139 0
-140 91 0
-140 -139 0
141 -82 139 0
-141 82 0
-141 -139 0
142 -82 -91 0
-142 82 0
-142 91 0
143 142 141 0
-143 -142 0
-143 -141 0
144 140 -143 0
-144 -140 0
-144 143 0
145 -91 82 0
-145 91 0
-145 -82 0
146 -82 91 0
-146 82 0
-146 -91 0
147 145 146 0
-147 -145 0
-147 -146 0
148 -147 139 0
-148 147 0
-148 -139 0
149 147 -139 0
-149 -147 0
-149 139 0
150 148 149 0
-150 -148 0
-150 -149 0
151 -73 150 0
-151 73 0
-151 -150 0
152 73 150 0
-152 -73 0
-152 -150 0
153 -73 -150 0
-153 73 0
-153 150 0
154 153 152 0
-154 -153 0
-154 -152 0
155 144 -151 0
-155 -144 0
-155 151 0
156 133 -151 0
-156 -133 0
-156 151 0
157 133 144 0
-157 -133 0
-157 -144 0
158 156 157 0
-158 -156 0
-158 -157 0
159 155 -158 0
-159 -155 0
-159 158 0
160 -133 144 0
-160 133 0
-160 -144 0
161 133 -144 0
-161 -133 0
-161 144 0
162 161 160 0
-162 -161 0
-162 -160 0
163 -151 -162 0
-163 151 0
-163 162 0
164 151 162 0
-164 -151 0
-164 -162 0
165 164 163 0
-165 -164 0
-165 -163 0
166 -101 165 0
-166 101 0
-166 -165 0
167 -92 165 0
-167 92 0
-167 -165 0
168 -101 -92 0
-168 101 0
-168 92 0
169 168 167 0
-169 -168 0
-169 -167 0
170 166 -169 0
-170 -166 0
-170 169 0
171 -101 92 0
-171 101 0
-171 -92 0
172 -92 101 0
-172 92 0
-172 -101 0
173 171 172 0
-173 -171 0
-173 -172 0
174 -173 165 0
-174 173 0
-174 -165 0
175 173 -165 0
-175 -173 0
-175 165 0
176 174 175 0
-176 -174 0
-176 -175 0
177 -83 176 0
-177 83 0
-177 -176 0
178 -74 176 0
-178 74 0
-178 -176 0
179 -74 -83 0
-179 74 0
-179 83 0
180 179 178 0
-180 -179 0
-180 -178 0
181 177 -180 0
-181 -177 0
-181 180 0
182 -83 74 0
-182 83 0
-182 -74 0
183 -74 83 0
-183 74 0
-183 -83 0
184 183 182 0
-184 -183 0
-184 -182 0
185 -184 176 0
-185 184 0
-185 -176 0
186 184 -176 0
-186 -184 0
-186 176 0
187 186 185 0
-187 -186 0
-187 -185 0
188 181 170 0
-188 -181 0
-188 -170 0
189 181 159 0
-189 -181 0
-189 -159 0
190 170 159 0
-190 -170 0
-190 -159 0
191 189 190 0
-191 -189 0
-191 -190 0
192 -191 188 0
-192 191 0
-192 -188 0
193 170 -159 0
-193 -170 0
-193 159 0
194 -170 159 0
-194 170 0
-194 -159 0
195 193 194 0
-195 -193 0
-195 -194 0
196 181 -195 0
-196 -181 0
-196 195 0
197 -181 195 0
-197 181 0
-197 -195 0
198 197 196 0
-198 -197 0
-198 -196 0
199 -102 198 0
-199 102 0
-199 -198 0
200 -93 198 0
-200 93 0
-200 -198 0
201 -102 -93 0
-201 102 0
-201 93 0
202 201 200 0
-202 -201 0
-202 -200 0
203 199 -202 0
-203 -199 0
-203 202 0
204 -102 93 0
-204 102 0
-204 -93 0
205 -93 102 0
-205 93 0
-205 -102 0
206 204 205 0
-206 -204 0
-206 -205 0
207 -206 198 0
-207 206 0
-207 -198 0
208 206 -198 0
-208 -206 0
-208 198 0
209 207 208 0
-209 -207 0
-209 -208 0
210 -84 209 0
-210 84 0
-210 -209 0
211 84 209 0
-211 -84 0
-211 -209 0
212 -84 -209 0
-212 84 0
-212 209 0
213 212 211 0
-213 -212 0
-213 -211 0
214 203 -210 0
-214 -203 0
-214 210 0
215 192 -210 0
-215 -192 0
-215 210 0
216 192 203 0
-216 -192 0
-216 -203 0
217 215 216 0
-217 -215 0
-217 -216 0
218 214 -217 0
-218 -214 0
-218 217 0
219 -192 203 0
-219 192 0
-219 -203 0
220 192 -203 0
-220 -192 0
-220 203 0
221 220 219 0
-221 -220 0
-221 -219 0
222 -221 -210 0
-222 221 0
-222 210 0
223 221 210 0
-223 -221 0
-223 -210 0
224 223 222 0
-224 -223 0
-224 -222 0
225 -103 224 0
-225 103 0
-225 -224 0
226 -94 224 0
-226 94 0
-226 -224 0
227 -103 -94 0
-227 103 0
-227 94 0
228 227 226 0
-228 -227 0
-228 -226 0
229 225 -228 0
-229 -225 0
-229 228 0
230 -103 94 0
-230 103 0
-230 -94 0
231 -94 103 0
-231 94 0
-231 -103 0
232 230 231 0
-232 -230 0
-232 -231 0
233 -232 224 0
-233 232 0
-233 -224 0
234 232 -224 0
-234 -232 0
-234 224 0
235 233 234 0
-235 -233 0
-235 -234 0
236 229 218 0
-236 -229 0
-236 -218 0
237 -104 229 0
-237 104 0
-237 -229 0
238 -104 218 0
-238 104 0
-238 -218 0
239 237 238 0
-239 -237 0
-239 -238 0
240 236 -239 0
-240 -236 0
-240 239 0
241 104 218 0
-241 -104 0
-241 -218 0
242 -104 -218 0
-242 104 0
-242 218 0
243 242 241 0
-243 -242 0
-243 -241 0
244 -243 229 0
-244 243 0
-244 -229 0
245 243 -229 0
-245 -243 0
-245 229 0
246 245 244 0
-246 -245 0
-246 -244 0
247 -51 -60 0
-247 51 0
-247 60 0
248 -60 51 0
-248 60 0
-248 -51 0
249 -51 60 0
-249 51 0
-249 -60 0
250 248 249 0
-250 -248 0
-250 -249 0
251 -70 -247 0
-251 70 0
-251 247 0
252 -61 -247 0
-252 61 0
-252 247 0
253 -70 -61 0
-253 70 0
-253 61 0
254 253 252 0
-254 -253 0
-254 -252 0
255 251 -254 0
-255 -251 0
-255 254 0
256 -70 61 0
-256 70 0
-256 -61 0
257 -61 70 0
-257 61 0
-257 -70 0
258 256 257 0
-258 -256 0
-258 -257 0
259 -247 -258 0
-259 247 0
-259 258 0
260 247 258 0
-260 -247 0
-260 -258 0
261 260 259 0
-261 -260 0
-261 -259 0
262 -52 261 0
-262 52 0
-262 -261 0
263 52 261 0
-263 -52 0
-263 -261 0
264 -52 -261 0
-264 52 0
-264 261 0
265 263 264 0
-265 -263 0
-265 -264 0
266 255 -262 0
-266 -255 0
-266 262 0
267 113 -262 0
-267 -113 0
-267 262 0
268 113 255 0
-268 -113 0
-268 -255 0
269 268 267 0
-269 -268 0
-269 -267 0
270 -269 266 0
-270 269 0
-270 -266 0
271 -113 255 0
-271 113 0
-271 -255 0
272 113 -255 0
-272 -113 0
-272 255 0
273 272 271 0
-273 -272 0
-273 -271 0
274 -273 -262 0
-274 273 0
-274 262 0
275 273 262 0
-275 -273 0
-275 -262 0
276 274 275 0
-276 -274 0
-276 -275 0
277 -62 276 0
-277 62 0
-277 -276 0
278 -53 276 0
-278 53 0
-278 -276 0
279 -53 -62 0
-279 53 0
-279 62 0
280 279 278 0
-280 -279 0
-280 -278 0
281 277 -280 0
-281 -277 0
-281 280 0
282 -62 53 0
-282 62 0
-282 -53 0
283 -53 62 0
-283 53 0
-283 -62 0
284 282 283 0
-284 -282 0
-284 -283 0
285 -284 276 0
-285 284 0
-285 -276 0
286 284 -276 0
-286 -284 0
-286 276 0
287 285 286 0
-287 -285 0
-287 -286 0
288 270 281 0
-288 -270 0
-288 -281 0
289 128 281 0
-289 -128 0
-289 -281 0
290 128 270 0
-290 -128 0
-290 -270 0
291 289 290 0
-291 -289 0
-291 -290 0
292 288 -291 0
-292 -288 0
-292 291 0
293 -128 270 0
-293 128 0
-293 -270 0
294 128 -270 0
-294 -128 0
-294 270 0
295 293 294 0
-295 -293 0
-295 -294 0
296 -295 281 0
-296 295 0
-296 -281 0
297 295 -281 0
-297 -295 0
-297 281 0
298 297 296 0
-298 -297 0
-298 -296 0
299 -63 298 0
-299 63 0
-299 -298 0
300 -54 298 0
-300 54 0
-300 -298 0
301 -54 -63 0
-301 54 0
-301 63 0
302 301 300 0
-302 -301 0
-302 -300 0
303 299 -302 0
-303 -299 0
-303 302 0
304 -63 54 0
-304 63 0
-304 -54 0
305 -54 63 0
-305 54 0
-305 -63 0
306 304 305 0
-306 -304 0
-306 -305 0
307 -306 298 0
-307 306 0
-307 -298 0
308 306 -298 0
-308 -306 0
-308 298 0
309 307 308 0
-309 -307 0
-309 -308 0
310 303 292 0
-310 -303 0
-310 -292 0
311 303 154 0
-311 -303 0
-311 -154 0
312 154 292 0
-312 -154 0
-312 -292 0
313 312 311 0
-313 -312 0
-313 -311 0
314 -313 310 0
-314 313 0
-314 -310 0
315 -154 292 0
-315 154 0
-315 -292 0
316 154 -292 0
-316 -154 0
-316 292 0
317 315 316 0
-317 -315 0
-317 -316 0
318 303 -317 0
-318 -303 0
-318 317 0
319 -303 317 0
-319 303 0
-319 -317 0
320 319 318 0
-320 -319 0
-320 -318 0
321 -64 320 0
-321 64 0
-321 -320 0
322 -55 320 0
-322 55 0
-322 -320 0
323 -55 -64 0
-323 55 0
-323 64 0
324 323 322 0
-324 -323 0
-324 -322 0
325 321 -324 0
-325 -321 0
-325 324 0
326 -64 55 0
-326 64 0
-326 -55 0
327 -55 64 0
-327 55 0
-327 -64 0
328 326 327 0
-328 -326 0
-328 -327 0
329 -328 320 0
-329 328 0
-329 -320 0
330 328 -320 0
-330 -328 0
-330 320 0
331 330 329 0
-331 -330 0
-331 -329 0
332 314 325 0
-332 -314 0
-332 -325 0
333 325 187 0
-333 -325 0
-333 -187 0
334 314 187 0
-334 -314 0
-334 -187 0
335 333 334 0
-335 -333 0
-335 -334 0
336 332 -335 0
-336 -332 0
-336 335 0
337 314 -187 0
-337 -314 0
-337 187 0
338 -314 187 0
-338 314 0
-338 -187 0
339 337 338 0
-339 -337 0
-339 -338 0
340 -339 325 0
-340 339 0
-340 -325 0
341 339 -325 0
-341 -339 0
-341 325 0
342 340 341 0
-342 -340 0
-342 -341 0
343 -65 342 0
-343 65 0
-343 -342 0
344 -56 342 0
-344 56 0
-344 -342 0
345 -56 -65 0
-345 56 0
-345 65 0
346 345 344 0
-346 -345 0
-346 -344 0
347 343 -346 0
-347 -343 0
-347 346 0
348 -65 56 0
-348 65 0
-348 -56 0
349 -56 65 0
-349 56 0
-349 -65 0
350 348 349 0
-350 -348 0
-350 -349 0
351 -350 342 0
-351 350 0
-351 -342 0
352 350 -342 0
-352 -350 0
-352 342 0
353 352 351 0
-353 -352 0
-353 -351 0
354 336 347 0
-354 -336 0
-354 -347 0
355 347 213 0
-355 -347 0
-355 -213 0
356 336 213 0
-356 -336 0
-356 -213 0
357 356 355 0
-357 -356 0
-357 -355 0
358 354 -357 0
-358 -354 0
-358 357 0
359 336 -213 0
-359 -336 0
-359 213 0
360 -336 213 0
-360 336 0
-360 -213 0
361 360 359 0
-361 -360 0
-361 -359 0
362 347 -361 0
-362 -347 0
-362 361 0
363 -347 361 0
-363 347 0
-363 -361 0
364 362 363 0
-364 -362 0
-364 -363 0
365 -75 364 0
-365 75 0
-365 -364 0
366 -66 364 0
-366 66 0
-366 -364 0
367 -75 -66 0
-367 75 0
-367 66 0
368 367 366 0
-368 -367 0
-368 -366 0
369 365 -368 0
-369 -365 0
-369 368 0
370 -75 66 0
-370 75 0
-370 -66 0
371 -66 75 0
-371 66 0
-371 -75 0
372 370 371 0
-372 -370 0
-372 -371 0
373 -372 364 0
-373 372 0
-373 -364 0
374 372 -364 0
-374 -372 0
-374 364 0
375 373 374 0
-375 -373 0
-375 -374 0
376 369 358 0
-376 -369 0
-376 -358 0
377 369 235 0
-377 -369 0
-377 -235 0
378 358 235 0
-378 -358 0
-378 -235 0
379 377 378 0
-379 -377 0
-379 -378 0
380 -379 376 0
-380 379 0
-380 -376 0
381 358 -235 0
-381 -358 0
-381 235 0
382 -358 235 0
-382 358 0
-382 -235 0
383 382 381 0
-383 -382 0
-383 -381 0
384 369 -383 0
-384 -369 0
-384 383 0
385 -369 383 0
-385 369 0
-385 -383 0
386 384 385 0
-386 -384 0
-386 -385 0
387 -85 386 0
-387 85 0
-387 -386 0
388 -76 386 0
-388 76 0
-388 -386 0
389 -76 -85 0
-389 76 0
-389 85 0
390 389 388 0
-390 -389 0
-390 -388 0
391 387 -390 0
-391 -387 0
-391 390 0
392 -85 76 0
-392 85 0
-392 -76 0
393 -76 85 0
-393 76 0
-393 -85 0
394 393 392 0
-394 -393 0
-394 -392 0
395 -394 386 0
-395 394 0
-395 -386 0
396 394 -386 0
-396 -394 0
-396 386 0
397 396 395 0
-397 -396 0
-397 -395 0
398 380 391 0
-398 -380 0
-398 -391 0
399 246 391 0
-399 -246 0
-399 -391 0
400 380 246 0
-400 -380 0
-400 -246 0
401 400 399 0
-401 -400 0
-401 -399 0
402 398 -401 0
-402 -398 0
-402 401 0
403 380 -246 0
-403 -380 0
-403 246 0
404 -380 246 0
-404 380 0
-404 -246 0
405 403 404 0
-405 -403 0
-405 -404 0
406 -405 391 0
-406 405 0
-406 -391 0
407 405 -391 0
-407 -405 0
-407 391 0
408 407 406 0
-408 -407 0
-408 -406 0
409 -95 408 0
-409 95 0
-409 -408 0
410 -86 408 0
-410 86 0
-410 -408 0
411 -86 -95 0
-411 86 0
-411 95 0
412 411 410 0
-412 -411 0
-412 -410 0
413 409 -412 0
-413 -409 0
-413 412 0
414 -95 86 0
-414 95 0
-414 -86 0
415 -86 95 0
-415 86 0
-415 -95 0
416 414 415 0
-416 -414 0
-416 -415 0
417 -416 408 0
-417 416 0
-417 -408 0
418 416 -408 0
-418 -416 0
-418 408 0
419 417 418 0
-419 -417 0
-419 -418 0
420 402 413 0
-420 -402 0
-420 -413 0
421 240 413 0
-421 -240 0
-421 -413 0
422 402 240 0
-422 -402 0
-422 -240 0
423 421 422 0
-423 -421 0
-423 -422 0
424 420 -423 0
-424 -420 0
-424 423 0
425 402 -240 0
-425 -402 0
-425 240 0
426 -402 240 0
-426 402 0
-426 -240 0
427 425 426 0
-427 -425 0
-427 -426 0
428 -427 413 0
-428 427 0
-428 -413 0
429 427 -413 0
-429 -427 0
-429 413 0
430 428 429 0
-430 -428 0
-430 -429 0
431 -105 430 0
-431 105 0
-431 -430 0
432 -96 430 0
-432 96 0
-432 -430 0
433 -105 -96 0
-433 105 0
-433 96 0
434 433 432 0
-434 -433 0
-434 -432 0
435 431 -434 0
-435 -431 0
-435 434 0
436 -105 96 0
-436 105 0
-436 -96 0
437 -96 105 0
-437 96 0
-437 -105 0
438 436 437 0
-438 -436 0
-438 -437 0
439 -438 430 0
-439 438 0
-439 -430 0
440 438 -430 0
-440 -438 0
-440 430 0
441 439 440 0
-441 -439 0
-441 -440 0
442 424 435 0
-442 -424 0
-442 -435 0
443 -106 435 0
-443 106 0
-443 -435 0
444 -106 424 0
-444 106 0
-444 -424 0
445 444 443 0
-445 -444 0
-445 -443 0
446 -445 442 0
-446 445 0
-446 -442 0
447 106 424 0
-447 -106 0
-447 -424 0
448 -106 -424 0
-448 106 0
-448 424 0
449 448 447 0
-449 -448 0
-449 -447 0
450 435 -449 0
-450 -435 0
-450 449 0
451 -435 449 0
-451 435 0
-451 -449 0
452 450 451 0
-452 -450 0
-452 -451 0
453 -50 -41 0
-453 50 0
-453 41 0
454 -50 41 0
-454 50 0
-454 -41 0
455 -41 50 0
-455 41 0
-455 -50 0
456 455 454 0
-456 -455 0
-456 -454 0
457 -453 250 0
-457 453 0
-457 -250 0
458 -42 -453 0
-458 42 0
-458 453 0
459 -42 250 0
-459 42 0
-459 -250 0
460 458 459 0
-460 -458 0
-460 -459 0
461 457 -460 0
-461 -457 0
-461 460 0
462 42 250 0
-462 -42 0
-462 -250 0
463 -42 -250 0
-463 42 0
-463 250 0
464 463 462 0
-464 -463 0
-464 -462 0
465 -453 -464 0
-465 453 0
-465 464 0
466 453 464 0
-466 -453 0
-466 -464 0
467 465 466 0
-467 -465 0
-467 -466 0
468 461 265 0
-468 -461 0
-468 -265 0
469 -43 461 0
-469 43 0
-469 -461 0
470 -43 265 0
-470 43 0
-470 -265 0
471 469 470 0
-471 -469 0
-471 -470 0
472 468 -471 0
-472 -468 0
-472 471 0
473 43 265 0
-473 -43 0
-473 -265 0
474 -43 -265 0
-474 43 0
-474 265 0
475 474 473 0
-475 -474 0
-475 -473 0
476 461 -475 0
-476 -461 0
-476 475 0
477 -461 475 0
-477 461 0
-477 -475 0
478 476 477 0
-478 -476 0
-478 -477 0
479 287 472 0
-479 -287 0
-479 -472 0
480 -44 472 0
-480 44 0
-480 -472 0
481 -44 287 0
-481 44 0
-481 -287 0
482 481 480 0
-482 -481 0
-482 -480 0
483 -482 479 0
-483 482 0
-483 -479 0
484 44 287 0
-484 -44 0
-484 -287 0
485 -44 -287 0
-485 44 0
-485 287 0
486 485 484 0
-486 -485 0
-486 -484 0
487 -486 472 0
-487 486 0
-487 -472 0
488 486 -472 0
-488 -486 0
-488 472 0
489 488 487 0
-489 -488 0
-489 -487 0
490 309 483 0
-490 -309 0
-490 -483 0
491 -45 483 0
-491 45 0
-491 -483 0
492 -45 309 0
-492 45 0
-492 -309 0
493 492 491 0
-493 -492 0
-493 -491 0
494 490 -493 0
-494 -490 0
-494 493 0
495 45 309 0
-495 -45 0
-495 -309 0
496 -45 -309 0
-496 45 0
-496 309 0
497 496 495 0
-497 -496 0
-497 -495 0
498 483 -497 0
-498 -483 0
-498 497 0
499 -483 497 0
-499 483 0
-499 -497 0
500 498 499 0
-500 -498 0
-500 -499 0
501 494 331 0
-501 -494 0
-501 -331 0
502 -46 494 0
-502 46 0
-502 -494 0
503 -46 331 0
-503 46 0
-503 -331 0
504 502 503 0
-504 -502 0
-504 -503 0
505 501 -504 0
-505 -501 0
-505 504 0
506 46 331 0
-506 -46 0
-506 -331 0
507 -46 -331 0
-507 46 0
-507 331 0
508 507 506 0
-508 -507 0
-508 -506 0
509 494 -508 0
-509 -494 0
-509 508 0
510 -494 508 0
-510 494 0
-510 -508 0
511 510 509 0
-511 -510 0
-511 -509 0
512 353 505 0
-512 -353 0
-512 -505 0
513 -47 505 0
-513 47 0
-513 -505 0
514 -47 353 0
-514 47 0
-514 -353 0
515 514 513 0
-515 -514 0
-515 -513 0
516 512 -515 0
-516 -512 0
-516 515 0
517 47 353 0
-517 -47 0
-517 -353 0
518 -47 -353 0
-518 47 0
-518 353 0
519 518 517 0
-519 -518 0
-519 -517 0
520 505 -519 0
-520 -505 0
-520 519 0
521 -505 519 0
-521 505 0
-521 -519 0
522 521 520 0
-522 -521 0
-522 -520 0
523 516 375 0
-523 -516 0
-523 -375 0
524 -57 516 0
-524 57 0
-524 -516 0
525 -57 375 0
-525 57 0
-525 -375 0
526 524 525 0
-526 -524 0
-526 -525 0
527 523 -526 0
-527 -523 0
-527 526 0
528 57 375 0
-528 -57 0
-528 -375 0
529 -57 -375 0
-529 57 0
-529 375 0
530 528 529 0
-530 -528 0
-530 -529 0
531 516 -530 0
-531 -516 0
-531 530 0
532 -516 530 0
-532 516 0
-532 -530 0
533 532 531 0
-533 -532 0
-533 -531 0
534 397 527 0
-534 -397 0
-534 -527 0
535 -67 527 0
-535 67 0
-535 -527 0
536 -67 397 0
-536 67 0
-536 -397 0
537 536 535 0
-537 -536 0
-537 -535 0
538 534 -537 0
-538 -534 0
-538 537 0
539 67 397 0
-539 -67 0
-539 -397 0
540 -67 -397 0
-540 67 0
-540 397 0
541 539 540 0
-541 -539 0
-541 -540 0
542 -541 527 0
-542 541 0
-542 -527 0
543 541 -527 0
-543 -541 0
-543 527 0
544 543 542 0
-544 -543 0
-544 -542 0
545 419 538 0
-545 -419 0
-545 -538 0
546 -77 538 0
-546 77 0
-546 -538 0
547 -77 419 0
-547 77 0
-547 -419 0
548 547 546 0
-548 -547 0
-548 -546 0
549 -548 545 0
-549 548 0
-549 -545 0
550 77 419 0
-550 -77 0
-550 -419 0
551 -77 -419 0
-551 77 0
-551 419 0
552 551 550 0
-552 -551 0
-552 -550 0
553 538 -552 0
-553 -538 0
-553 552 0
554 -538 552 0
-554 538 0
-554 -552 0
555 553 554 0
-555 -553 0
-555 -554 0
556 441 549 0
-556 -441 0
-556 -549 0
557 -87 549 0
-557 87 0
-557 -549 0
558 -87 441 0
-558 87 0
-558 -441 0
559 558 557 0
-559 -558 0
-559 -557 0
560 556 -559 0
-560 -556 0
-560 559 0
561 87 441 0
-561 -87 0
-561 -441 0
562 -87 -441 0
-562 87 0
-562 441 0
563 561 562 0
-563 -561 0
-563 -562 0
564 -563 549 0
-564 563 0
-564 -549 0
565 563 -549 0
-565 -563 0
-565 549 0
566 565 564 0
-566 -565 0
-566 -564 0
567 452 560 0
-567 -452 0
-567 -560 0
568 -97 560 0
-568 97 0
-568 -560 0
569 -97 452 0
-569 97 0
-569 -452 0
570 569 568 0
-570 -569 0
-570 -568 0
571 -570 567 0
-571 570 0
-571 -567 0
572 97 452 0
-572 -97 0
-572 -452 0
573 -97 -452 0
-573 97 0
-573 452 0
574 573 572 0
-574 -573 0
-574 -572 0
575 -574 560 0
-575 574 0
-575 -560 0
576 574 -560 0
-576 -574 0
-576 560 0
577 575 576 0
-577 -575 0
-577 -576 0
578 446 571 0
-578 -446 0
-578 -571 0
579 -107 571 0
-579 107 0
-579 -571 0
580 -107 446 0
-580 107 0
-580 -446 0
581 580 579 0
-581 -580 0
-581 -579 0
582 578 -581 0
-582 -578 0
-582 581 0
583 107 446 0
-583 -107 0
-583 -446 0
584 -107 -446 0
-584 107 0
-584 446 0
585 584 583 0
-585 -584 0
-585 -583 0
586 -585 571 0
-586 585 0
-586 -571 0
587 585 -571 0
-587 -585 0
-587 571 0
588 586 587 0
-588 -586 0
-588 -587 0
589 -31 -40 0
-589 31 0
-589 40 0
590 -40 31 0
-590 40 0
-590 -31 0
591 -31 40 0
-591 31 0
-591 -40 0
592 590 591 0
-592 -590 0
-592 -591 0
593 -589 456 0
-593 589 0
-593 -456 0
594 -32 -589 0
-594 32 0
-594 589 0
595 -32 456 0
-595 32 0
-595 -456 0
596 594 595 0
-596 -594 0
-596 -595 0
597 593 -596 0
-597 -593 0
-597 596 0
598 32 456 0
-598 -32 0
-598 -456 0
599 -32 -456 0
-599 32 0
-599 456 0
600 599 598 0
-600 -599 0
-600 -598 0
601 -589 -600 0
-601 589 0
-601 600 0
602 589 600 0
-602 -589 0
-602 -600 0
603 601 602 0
-603 -601 0
-603 -602 0
604 597 467 0
-604 -597 0
-604 -467 0
605 -33 597 0
-605 33 0
-605 -597 0
606 -33 467 0
-606 33 0
-606 -467 0
607 605 606 0
-607 -605 0
-607 -606 0
608 604 -607 0
-608 -604 0
-608 607 0
609 33 467 0
-609 -33 0
-609 -467 0
610 -33 -467 0
-610 33 0
-610 467 0
611 609 610 0
-611 -609 0
-611 -610 0
612 597 -611 0
-612 -597 0
-612 611 0
613 -597 611 0
-613 597 0
-613 -611 0
614 612 613 0
-614 -612 0
-614 -613 0
615 608 478 0
-615 -608 0
-615 -478 0
616 -34 608 0
-616 34 0
-616 -608 0
617 -34 478 0
-617 34 0
-617 -478 0
618 616 617 0
-618 -616 0
-618 -617 0
619 615 -618 0
-619 -615 0
-619 618 0
620 34 478 0
-620 -34 0
-620 -478 0
621 -34 -478 0
-621 34 0
-621 478 0
622 620 621 0
-622 -620 0
-622 -621 0
623 608 -622 0
-623 -608 0
-623 622 0
624 -608 622 0
-624 608 0
-624 -622 0
625 624 623 0
-625 -624 0
-625 -623 0
626 489 619 0
-626 -489 0
-626 -619 0
627 -35 619 0
-627 35 0
-627 -619 0
628 -35 489 0
-628 35 0
-628 -489 0
629 628 627 0
-629 -628 0
-629 -627 0
630 626 -629 0
-630 -626 0
-630 629 0
631 35 489 0
-631 -35 0
-631 -489 0
632 -35 -489 0
-632 35 0
-632 489 0
633 631 632 0
-633 -631 0
-633 -632 0
634 -633 619 0
-634 633 0
-634 -619 0
635 633 -619 0
-635 -633 0
-635 619 0
636 635 634 0
-636 -635 0
-636 -634 0
637 630 500 0
-637 -630 0
-637 -500 0
638 -36 630 0
-638 36 0
-638 -630 0
639 -36 500 0
-639 36 0
-639 -500 0
640 638 639 0
-640 -638 0
-640 -639 0
641 637 -640 0
-641 -637 0
-641 640 0
642 36 500 0
-642 -36 0
-642 -500 0
643 -36 -500 0
-643 36 0
-643 500 0
644 642 643 0
-644 -642 0
-644 -643 0
645 630 -644 0
-645 -630 0
-645 644 0
646 -630 644 0
-646 630 0
-646 -644 0
647 646 645 0
-647 -646 0
-647 -645 0
648 511 641 0
-648 -511 0
-648 -641 0
649 -37 641 0
-649 37 0
-649 -641 0
650 -37 511 0
-650 37 0
-650 -511 0
651 650 649 0
-651 -650 0
-651 -649 0
652 648 -651 0
-652 -648 0
-652 651 0
653 37 511 0
-653 -37 0
-653 -511 0
654 -37 -511 0
-654 37 0
-654 511 0
655 654 653 0
-655 -654 0
-655 -653 0
656 -655 641 0
-656 655 0
-656 -641 0
657 655 -641 0
-657 -655 0
-657 641 0
658 657 656 0
-658 -657 0
-658 -656 0
659 652 522 0
-659 -652 0
-659 -522 0
660 -38 652 0
-660 38 0
-660 -652 0
661 -38 522 0
-661 38 0
-661 -522 0
662 660 661 0
-662 -660 0
-662 -661 0
663 -662 659 0
-663 662 0
-663 -659 0
664 38 522 0
-664 -38 0
-664 -522 0
665 -38 -522 0
-665 38 0
-665 522 0
666 665 664 0
-666 -665 0
-666 -664 0
667 -666 652 0
-667 666 0
-667 -652 0
668 666 -652 0
-668 -666 0
-668 652 0
669 668 667 0
-669 -668 0
-669 -667 0
670 533 663 0
-670 -533 0
-670 -663 0
671 -48 663 0
-671 48 0
-671 -663 0
672 -48 533 0
-672 48 0
-672 -533 0
673 672 671 0
-673 -672 0
-673 -671 0
674 -673 670 0
-674 673 0
-674 -670 0
675 48 533 0
-675 -48 0
-675 -533 0
676 -48 -533 0
-676 48 0
-676 533 0
677 675 676 0
-677 -675 0
-677 -676 0
678 663 -677 0
-678 -663 0
-678 677 0
679 -663 677 0
-679 663 0
-679 -677 0
680 679 678 0
-680 -679 0
-680 -678 0
681 544 674 0
-681 -544 0
-681 -674 0
682 -58 674 0
-682 58 0
-682 -674 0
683 -58 544 0
-683 58 0
-683 -544 0
684 683 682 0
-684 -683 0
-684 -682 0
685 -684 681 0
-685 684 0
-685 -681 0
686 58 544 0
-686 -58 0
-686 -544 0
687 -58 -544 0
-687 58 0
-687 544 0
688 687 686 0
-688 -687 0
-688 -686 0
689 -688 674 0
-689 688 0
-689 -674 0
690 688 -674 0
-690 -688 0
-690 674 0
691 689 690 0
-691 -689 0
-691 -690 0
692 685 555 0
-692 -685 0
-692 -555 0
693 -68 685 0
-693 68 0
-693 -685 0
694 -68 555 0
-694 68 0
-694 -555 0
695 693 694 0
-695 -693 0
-695 -694 0
696 692 -695 0
-696 -692 0
-696 695 0
697 68 555 0
-697 -68 0
-697 -555 0
698 -68 -555 0
-698 68 0
-698 555 0
699 698 697 0
-699 -698 0
-699 -697 0
700 -699 685 0
-700 699 0
-700 -685 0
701 699 -685 0
-701 -699 0
-701 685 0
702 701 700 0
-702 -701 0
-702 -700 0
703 566 696 0
-703 -566 0
-703 -696 0
704 -78 696 0
-704 78 0
-704 -696 0
705 -78 566 0
-705 78 0
-705 -566 0
706 705 704 0
-706 -705 0
-706 -704 0
707 -706 703 0
-707 706 0
-707 -703 0
708 78 566 0
-708 -78 0
-708 -566 0
709 -78 -566 0
-709 78 0
-709 566 0
710 708 709 0
-710 -708 0
-710 -709 0
711 -710 696 0
-711 710 0
-711 -696 0
712 710 -696 0
-712 -710 0
-712 696 0
713 711 712 0
-713 -711 0
-713 -712 0
714 707 577 0
-714 -707 0
-714 -577 0
715 -88 707 0
-715 88 0
-715 -707 0
716 -88 577 0
-716 88 0
-716 -577 0
717 715 716 0
-717 -715 0
-717 -716 0
718 714 -717 0
-718 -714 0
-718 717 0
719 88 577 0
-719 -88 0
-719 -577 0
720 -88 -577 0
-720 88 0
-720 577 0
721 719 720 0
-721 -719 0
-721 -720 0
722 -721 707 0
-722 721 0
-722 -707 0
723 721 -707 0
-723 -721 0
-723 707 0
724 722 723 0
-724 -722 0
-724 -723 0
725 588 718 0
-725 -588 0
-725 -718 0
726 -98 718 0
-726 98 0
-726 -718 0
727 -98 588 0
-727 98 0
-727 -588 0
728 727 726 0
-728 -727 0
-728 -726 0
729 725 -728 0
-729 -725 0
-729 728 0
730 98 588 0
-730 -98 0
-730 -588 0
731 -98 -588 0
-731 98 0
-731 588 0
732 731 730 0
-732 -731 0
-732 -730 0
733 -732 718 0
-733 732 0
-733 -718 0
734 732 -718 0
-734 -732 0
-734 718 0
735 734 733 0
-735 -734 0
-735 -733 0
736 729 582 0
-736 -729 0
-736 -582 0
737 -108 729 0
-737 108 0
-737 -729 0
738 -108 582 0
-738 108 0
-738 -582 0
739 737 738 0
-739 -737 0
-739 -738 0
740 736 -739 0
-740 -736 0
-740 739 0
741 108 582 0
-741 -108 0
-741 -582 0
742 -108 -582 0
-742 108 0
-742 582 0
743 741 742 0
-743 -741 0
-743 -742 0
744 729 -743 0
-744 -729 0
-744 743 0
745 -729 743 0
-745 729 0
-745 -743 0
746 744 745 0
-746 -744 0
-746 -745 0
747 -21 30 0
-747 21 0
-747 -30 0
748 -30 21 0
-748 30 0
-748 -21 0
749 747 748 0
-749 -747 0
-749 -748 0
750 -30 -21 0
-750 30 0
-750 21 0
751 -22 -592 0
-751 22 0
-751 592 0
752 22 592 0
-752 -22 0
-752 -592 0
753 751 752 0
-753 -751 0
-753 -752 0
754 -750 -753 0
-754 750 0
-754 753 0
755 750 753 0
-755 -750 0
-755 -753 0
756 754 755 0
-756 -754 0
-756 -755 0
757 -22 -750 0
-757 22 0
-757 750 0
758 -750 592 0
-758 750 0
-758 -592 0
759 -22 592 0
-759 22 0
-759 -592 0
760 759 758 0
-760 -759 0
-760 -758 0
761 757 -760 0
-761 -757 0
-761 760 0
762 -23 -603 0
-762 23 0
-762 603 0
763 23 603 0
-763 -23 0
-763 -603 0
764 763 762 0
-764 -763 0
-764 -762 0
765 761 -764 0
-765 -761 0
-765 764 0
766 -761 764 0
-766 761 0
-766 -764 0
767 766 765 0
-767 -766 0
-767 -765 0
768 -23 761 0
-768 23 0
-768 -761 0
769 761 603 0
-769 -761 0
-769 -603 0
770 -23 603 0
-770 23 0
-770 -603 0
771 769 770 0
-771 -769 0
-771 -770 0
772 768 -771 0
-772 -768 0
-772 771 0
773 -24 -614 0
-773 24 0
-773 614 0
774 24 614 0
-774 -24 0
-774 -614 0
775 773 774 0
-775 -773 0
-775 -774 0
776 772 -775 0
-776 -772 0
-776 775 0
777 -772 775 0
-777 772 0
-777 -775 0
778 776 777 0
-778 -776 0
-778 -777 0
779 -24 772 0
-779 24 0
-779 -772 0
780 772 614 0
-780 -772 0
-780 -614 0
781 -24 614 0
-781 24 0
-781 -614 0
782 780 781 0
-782 -780 0
-782 -781 0
783 -782 779 0
-783 782 0
-783 -779 0
784 -25 -625 0
-784 25 0
-784 625 0
785 25 625 0
-785 -25 0
-785 -625 0
786 784 785 0
-786 -784 0
-786 -785 0
787 783 -786 0
-787 -783 0
-787 786 0
788 -783 786 0
-788 783 0
-788 -786 0
789 787 788 0
-789 -787 0
-789 -788 0
790 -25 783 0
-790 25 0
-790 -783 0
791 783 625 0
-791 -783 0
-791 -625 0
792 -25 625 0
-792 25 0
-792 -625 0
793 792 791 0
-793 -792 0
-793 -791 0
794 790 -793 0
-794 -790 0
-794 793 0
795 -26 -636 0
-795 26 0
-795 636 0
796 26 636 0
-796 -26 0
-796 -636 0
797 796 795 0
-797 -796 0
-797 -795 0
798 -797 794 0
-798 797 0
-798 -794 0
799 797 -794 0
-799 -797 0
-799 794 0
800 798 799 0
-800 -798 0
-800 -799 0
801 -26 794 0
-801 26 0
-801 -794 0
802 794 636 0
-802 -794 0
-802 -636 0
803 -26 636 0
-803 26 0
-803 -636 0
804 803 802 0
-804 -803 0
-804 -802 0
805 801 -804 0
-805 -801 0
-805 804 0
806 -27 -647 0
-806 27 0
-806 647 0
807 27 647 0
-807 -27 0
-807 -647 0
808 807 806 0
-808 -807 0
-808 -806 0
809 -808 805 0
-809 808 0
-809 -805 0
810 808 -805 0
-810 -808 0
-810 805 0
811 809 810 0
-811 -809 0
-811 -810 0
812 -27 805 0
-812 27 0
-812 -805 0
813 805 647 0
-813 -805 0
-813 -647 0
814 -27 647 0
-814 27 0
-814 -647 0
815 814 813 0
-815 -814 0
-815 -813 0
816 812 -815 0
-816 -812 0
-816 815 0
817 -28 -658 0
-817 28 0
-817 658 0
818 28 658 0
-818 -28 0
-818 -658 0
819 817 818 0
-819 -817 0
-819 -818 0
820 -819 816 0
-820 819 0
-820 -816 0
821 819 -816 0
-821 -819 0
-821 816 0
822 820 821 0
-822 -820 0
-822 -821 0
823 -28 816 0
-823 28 0
-823 -816 0
824 816 658 0
-824 -816 0
-824 -658 0
825 -28 658 0
-825 28 0
-825 -658 0
826 825 824 0
-826 -825 0
-826 -824 0
827 823 -826 0
-827 -823 0
-827 826 0
828 -29 -669 0
-828 29 0
-828 669 0
829 29 669 0
-829 -29 0
-829 -669 0
830 828 829 0
-830 -828 0
-830 -829 0
831 -830 827 0
-831 830 0
-831 -827 0
832 830 -827 0
-832 -830 0
-832 827 0
833 831 832 0
-833 -831 0
-833 -832 0
834 -29 827 0
-834 29 0
-834 -827 0
835 669 827 0
-835 -669 0
-835 -827 0
836 -29 669 0
-836 29 0
-836 -669 0
837 835 836 0
-837 -835 0
-837 -836 0
838 -837 834 0
-838 837 0
-838 -834 0
839 -39 -680 0
-839 39 0
-839 680 0
840 39 680 0
-840 -39 0
-840 -680 0
841 839 840 0
-841 -839 0
-841 -840 0
842 -841 838 0
-842 841 0
-842 -838 0
843 841 -838 0
-843 -841 0
-843 838 0
844 843 842 0
-844 -843 0
-844 -842 0
845 -39 838 0
-845 39 0
-845 -838 0
846 680 838 0
-846 -680 0
-846 -838 0
847 -39 680 0
-847 39 0
-847 -680 0
848 846 847 0
-848 -846 0
-848 -847 0
849 -848 845 0
-849 848 0
-849 -845 0
850 -49 -691 0
-850 49 0
-850 691 0
851 49 691 0
-851 -49 0
-851 -691 0
852 850 851 0
-852 -850 0
-852 -851 0
853 -852 849 0
-853 852 0
-853 -849 0
854 852 -849 0
-854 -852 0
-854 849 0
855 853 854 0
-855 -853 0
-855 -854 0
856 -49 849 0
-856 49 0
-856 -849 0
857 849 691 0
-857 -849 0
-857 -691 0
858 -49 691 0
-858 49 0
-858 -691 0
859 857 858 0
-859 -857 0
-859 -858 0
860 -859 856 0
-860 859 0
-860 -856 0
861 -59 -702 0
-861 59 0
-861 702 0
862 59 702 0
-862 -59 0
-862 -702 0
863 861 862 0
-863 -861 0
-863 -862 0
864 860 -863 0
-864 -860 0
-864 863 0
865 -860 863 0
-865 860 0
-865 -863 0
866 864 865 0
-866 -864 0
-866 -865 0
867 -59 860 0
-867 59 0
-867 -860 0
868 860 702 0
-868 -860 0
-868 -702 0
869 -59 702 0
-869 59 0
-869 -702 0
870 869 868 0
-870 -869 0
-870 -868 0
871 867 -870 0
-871 -867 0
-871 870 0
872 -69 -713 0
-872 69 0
-872 713 0
873 69 713 0
-873 -69 0
-873 -713 0
874 872 873 0
-874 -872 0
-874 -873 0
875 -874 871 0
-875 874 0
-875 -871 0
876 874 -871 0
-876 -874 0
-876 871 0
877 875 876 0
-877 -875 0
-877 -876 0
878 -69 871 0
-878 69 0
-878 -871 0
879 713 871 0
-879 -713 0
-879 -871 0
880 -69 713 0
-880 69 0
-880 -713 0
881 880 879 0
-881 -880 0
-881 -879 0
882 878 -881 0
-882 -878 0
-882 881 0
883 -79 -724 0
-883 79 0
-883 724 0
884 79 724 0
-884 -79 0
-884 -724 0
885 883 884 0
-885 -883 0
-885 -884 0
886 882 -885 0
-886 -882 0
-886 885 0
887 -882 885 0
-887 882 0
-887 -885 0
888 887 886 0
-888 -887 0
-888 -886 0
889 -79 882 0
-889 79 0
-889 -882 0
890 882 724 0
-890 -882 0
-890 -724 0
891 -79 724 0
-891 79 0
-891 -724 0
892 890 891 0
-892 -890 0
-892 -891 0
893 889 -892 0
-893 -889 0
-893 892 0
894 -89 -735 0
-894 89 0
-894 735 0
895 89 735 0
-895 -89 0
-895 -735 0
896 895 894 0
-896 -895 0
-896 -894 0
897 893 -896 0
-897 -893 0
-897 896 0
898 -893 896 0
-898 893 0
-898 -896 0
899 898 897 0
-899 -898 0
-899 -897 0
900 -89 893 0
-900 89 0
-900 -893 0
901 893 735 0
-901 -893 0
-901 -735 0
902 -89 735 0
-902 89 0
-902 -735 0
903 901 902 0
-903 -901 0
-903 -902 0
904 900 -903 0
-904 -900 0
-904 903 0
905 -99 -746 0
-905 99 0
-905 746 0
906 99 746 0
-906 -99 0
-906 -746 0
907 906 905 0
-907 -906 0
-907 -905 0
908 -907 904 0
-908 907 0
-908 -904 0
909 907 -904 0
-909 -907 0
-909 904 0
910 908 909 0
-910 -908 0
-910 -909 0
911 -99 904 0
-911 99 0
-911 -904 0
912 746 904 0
-912 -746 0
-912 -904 0
913 -99 746 0
-913 99 0
-913 -746 0
914 912 913 0
-914 -912 0
-914 -913 0
915 -914 911 0
-915 914 0
-915 -911 0
916 -109 -740 0
-916 109 0
-916 740 0
917 109 740 0
-917 -109 0
-917 -740 0
918 916 917 0
-918 -916 0
-918 -917 0
919 915 -918 0
-919 -915 0
-919 918 0
920 -915 918 0
-920 915 0
-920 -918 0
921 919 920 0
-921 -919 0
-921 -920 0
922 -109 915 0
-922 109 0
-922 -915 0
923 740 915 0
-923 -740 0
-923 -915 0
924 -109 740 0
-924 109 0
-924 -740 0
925 924 923 0
-925 -924 0
-925 -923 0
926 922 -925 0
-926 -922 0
-926 925 0
-927 20 0
927 -20 0
-928 -749 0
928 749 0
-929 -756 0
929 756 0
-930 -767 0
930 767 0
-931 -778 0
931 778 0
-932 -789 0
932 789 0
-933 -800 0
933 800 0
-934 -811 0
934 811 0
-935 -822 0
935 822 0
-936 -833 0
936 833 0
-937 -844 0
937 844 0
-938 -855 0
938 855 0
-939 -866 0
939 866 0
-940 -877 0
940 877 0
-941 -888 0
941 888 0
-942 -899 0
942 899 0
-943 -910 0
943 910 0
-944 -921 0
944 921 0
-945 -926 0
945 926 0
-927 0
-928 0
-929 0
-930 0
-931 0
-932 0
-933 0
-934 0
935 0
-936 0
-937 0
938 0
-939 0
940 0
-941 0
-942 0
-943 0
944 0
-945 0
